
   AbsCon 1.41 (January, 2014) - defaultConfiguration

   
   instance
        framework=CSP  name=Isomorphism-/cluster/gpg/ciaran/sip-benchmarks/benchmarks/LV/g14-/cluster/gpg/ciaran/sip-benchmarks/benchmarks/LV/g26
        parameters=/cluster/gpg/ciaran/sip-benchmarks/benchmarks/LV/g14,/cluster/gpg/ciaran/sip-benchmarks/benchmarks/LV/g26
      

   loading variables...
        nbVariables=50  nbDomainTypes=1  nbTotalValues=4000  domainSizes=(80:50)
          =>  wckTime=0.182  cpuTime=0.3  mem=9M123

   loading objectives...

   loading constraints...
        nbConstraints=110  nbSpecificConstraints=1  nbExtensionStructures=(1,shared:108)  nbConflictsStructures=(1,shared:108,unbuilt:1)
        degrees=(1:7)(2:8)(3:3)...(14:1)(16:1)(18:1)  arities=(2:109)(50:1)  types=(AllDifferent:1)(ConstraintHardExtensionV-Bits:109)
          =>  wckTime=0.23  cpuTime=0.346  mem=4M576

   INFO : <!-- Start saving the XML representation -->

   INFO : <!-- Stop saving the XML representation of g26.xml -->

   Solver SolverBacktrack being built... 
          =>  wckTime=0.386  cpuTime=0.477  mem=17M802

   
   search
        run=0  nbConstraintChecks=0  depth=(min:0,max:0,avg:1)  nbEffectivePropagations=459  nbRevisions=4448  nbUselessRevisions=3995
        nbAssignments=74  nbFailedAssignments=74  nbBacktracks=1  nbVisitedNodes=149  nbRestartNogoods=0
          =>  wckTime=0.233  cpuTime=0.699  mem=17M432

   
   global
        nbConstraintChecks=0  nbEffectivePropagations=459  nbRevisions=4448  nbUselessRevisions=3995  nbRestartNogoods=0  solvingWckTime=0.234
        expiredTime=no  totalExploration=yes  nbFoundSolutions=0  Stop=FULL_EXPLORATION
          =>  wckTime=0.62  cpuTime=0.7  mem=17M432

s UNSATISFIABLE
d NODES 74

   totalWckTime=0.513  totalCpuTime=0.7
